<?xml version = "1.0" encoding="UTF-8" standalone="yes"?>
<CPLEXSolution version="1.2">
 <header
   problemName="IloCplex"
   solutionName="p0"
   solutionIndex="-1"
   objectiveValue="0"
   solutionTypeValue="3"
   solutionTypeString="primal"
   solutionStatusValue="127"
   solutionStatusString="integer feasible solution"
   solutionMethodString="mip"
   primalFeasible="0"
   dualFeasible="0"
   writeLevel="3"/>
 <quality
   epInt="1.0000000000000001e-05"
   epRHS="9.9999999999999995e-07"
   maxIntInfeas="0"
   maxPrimalInfeas="0"
   maxX="1"
   maxSlack="1"/>
 <variables>
  <variable name="x0_40" index="150" value="1"/>
  <variable name="x1_55" index="265" value="1"/>
  <variable name="x2_25" index="335" value="1"/>
  <variable name="x3_44" index="454" value="1"/>
  <variable name="x4_34" index="544" value="1"/>
  <variable name="x5_86" index="696" value="1"/>
  <variable name="x6_22" index="732" value="1"/>
  <variable name="x7_84" index="894" value="1"/>
  <variable name="x8_19" index="929" value="1"/>
  <variable name="x9_80" index="1090" value="1"/>
  <variable name="x10_70" index="1180" value="1"/>
  <variable name="x11_32" index="1242" value="1"/>
  <variable name="x12_72" index="1382" value="1"/>
  <variable name="x13_43" index="1453" value="1"/>
  <variable name="x14_2" index="1512" value="1"/>
  <variable name="x15_59" index="1669" value="1"/>
  <variable name="x16_97" index="1807" value="1"/>
  <variable name="x17_35" index="1845" value="1"/>
  <variable name="x18_82" index="1992" value="1"/>
  <variable name="x19_8" index="2018" value="1"/>
  <variable name="x20_37" index="2147" value="1"/>
  <variable name="x21_78" index="2288" value="1"/>
  <variable name="x22_88" index="2398" value="1"/>
  <variable name="x23_9" index="2419" value="1"/>
  <variable name="x24_90" index="2600" value="1"/>
  <variable name="x25_87" index="2697" value="1"/>
  <variable name="x26_51" index="2761" value="1"/>
  <variable name="x27_67" index="2877" value="1"/>
  <variable name="x28_33" index="2943" value="1"/>
  <variable name="x29_85" index="3095" value="1"/>
  <variable name="x30_68" index="3178" value="1"/>
  <variable name="x31_95" index="3305" value="1"/>
  <variable name="x32_89" index="3399" value="1"/>
  <variable name="x33_30" index="3440" value="1"/>
  <variable name="x34_74" index="3584" value="1"/>
  <variable name="x35_64" index="3674" value="1"/>
  <variable name="x36_58" index="3768" value="1"/>
  <variable name="x37_41" index="3851" value="1"/>
  <variable name="x38_27" index="3937" value="1"/>
  <variable name="x39_65" index="4075" value="1"/>
  <variable name="x40_5" index="4115" value="1"/>
  <variable name="x41_76" index="4286" value="1"/>
  <variable name="x42_12" index="4322" value="1"/>
  <variable name="x43_13" index="4423" value="1"/>
  <variable name="x44_0" index="4510" value="1"/>
  <variable name="x45_50" index="4660" value="1"/>
  <variable name="x46_73" index="4783" value="1"/>
  <variable name="x47_18" index="4828" value="1"/>
  <variable name="x48_79" index="4989" value="1"/>
  <variable name="x49_66" index="5076" value="1"/>
  <variable name="x50_3" index="5113" value="1"/>
  <variable name="x51_57" index="5267" value="1"/>
  <variable name="x52_20" index="5330" value="1"/>
  <variable name="x53_39" index="5449" value="1"/>
  <variable name="x54_62" index="5572" value="1"/>
  <variable name="x55_99" index="5709" value="1"/>
  <variable name="x56_24" index="5734" value="1"/>
  <variable name="x57_56" index="5866" value="1"/>
  <variable name="x58_75" index="5985" value="1"/>
  <variable name="x59_49" index="6059" value="1"/>
  <variable name="x60_61" index="6171" value="1"/>
  <variable name="x61_4" index="6214" value="1"/>
  <variable name="x62_7" index="6317" value="1"/>
  <variable name="x63_92" index="6502" value="1"/>
  <variable name="x64_71" index="6581" value="1"/>
  <variable name="x65_36" index="6646" value="1"/>
  <variable name="x66_91" index="6801" value="1"/>
  <variable name="x67_11" index="6821" value="1"/>
  <variable name="x68_69" index="6979" value="1"/>
  <variable name="x69_17" index="7027" value="1"/>
  <variable name="x70_31" index="7141" value="1"/>
  <variable name="x71_6" index="7216" value="1"/>
  <variable name="x72_47" index="7357" value="1"/>
  <variable name="x73_46" index="7456" value="1"/>
  <variable name="x74_54" index="7564" value="1"/>
  <variable name="x75_63" index="7673" value="1"/>
  <variable name="x76_83" index="7793" value="1"/>
  <variable name="x77_42" index="7852" value="1"/>
  <variable name="x78_14" index="7924" value="1"/>
  <variable name="x79_15" index="8025" value="1"/>
  <variable name="x80_21" index="8131" value="1"/>
  <variable name="x81_52" index="8262" value="1"/>
  <variable name="x82_1" index="8311" value="1"/>
  <variable name="x83_96" index="8506" value="1"/>
  <variable name="x84_48" index="8558" value="1"/>
  <variable name="x85_23" index="8633" value="1"/>
  <variable name="x86_81" index="8791" value="1"/>
  <variable name="x87_16" index="8826" value="1"/>
  <variable name="x88_10" index="8920" value="1"/>
  <variable name="x89_98" index="9108" value="1"/>
  <variable name="x90_38" index="9148" value="1"/>
  <variable name="x91_94" index="9304" value="1"/>
  <variable name="x92_60" index="9370" value="1"/>
  <variable name="x93_26" index="9436" value="1"/>
  <variable name="x94_93" index="9603" value="1"/>
  <variable name="x95_28" index="9638" value="1"/>
  <variable name="x96_77" index="9787" value="1"/>
  <variable name="x97_53" index="9863" value="1"/>
  <variable name="x98_29" index="9939" value="1"/>
  <variable name="x99_45" index="10055" value="1"/>
  <variable name="u1" index="10111" value="1"/>
  <variable name="u3" index="10113" value="1"/>
  <variable name="u5" index="10115" value="1"/>
  <variable name="u9" index="10119" value="1"/>
 </variables>
</CPLEXSolution>
